Minimize
  - 11 y_1 - 18 y_2 - 26 y_3 - 17 y_4 - 17 y_5 - 19 y_6 - 16 y_7 - 20 y_8
   - 13 y_9 + 46 x_0_1 + 70 x_0_2 + 105 x_0_3 + 70 x_0_4 + 69 x_0_5
   + 78 x_0_6 + 54 x_0_9 + 34 x_1_2 + 66 x_1_3 + 25 x_1_4 + 38 x_1_6
   + 62 x_1_8 + 35 x_2_3 + 20 x_2_4 + 22 x_2_5 + 37 x_2_8 + 53 x_2_9
   + 45 x_3_4 + 42 x_3_5 + 75 x_3_6 + 48 x_3_8 + 82 x_3_9 + 20 x_4_2
   + 41 x_4_5 + 76 x_4_7 + 57 x_4_8 + 75 x_5_6 + 105 x_6_7 + 33 x_7_8
   + 90 x_7_9 + 84 x_8_9 + 84 x_8_9 + 84 x_8_9 + 84 x_8_9 + 84 x_8_9
   + 84 x_8_9 + 84 x_8_9 + 84 x_8_9 + 84 x_8_9 + 84 x_8_9 + 84 x_8_9
   + 84 x_8_9 + 84 x_8_9 + 84 x_8_9 + 84 x_8_9 + 84 x_8_9 + 84 x_8_9
   + 84 x_8_9 + 84 x_8_9 + 84 x_8_9 + 84 x_8_9 + 84 x_8_9 + 84 x_8_9
   + 84 x_8_9 + 84 x_8_9 + 84 x_8_9 + 84 x_8_9 + 84 x_8_9 + 84 x_8_9
   + 84 x_8_9 + 84 x_8_9 + 84 x_8_9 + 84 x_8_9 + 84 x_8_9 + 84 x_8_9
   + 84 x_8_9 + 84 x_8_9 + 84 x_8_9 + 84 x_8_9 + 84 x_8_9 + 84 x_8_9
   + 84 x_8_9 + 84 x_8_9 + 84 x_8_9 + 84 x_8_9 + 84 x_8_9 + 84 x_8_9
   + 84 x_8_9 + 84 x_8_9 + 84 x_8_9 + 84 x_8_9 + 84 x_8_9 + 84 x_8_9
   + 84 x_8_9 + 84 x_8_9 + 84 x_8_9 + 84 x_8_9 + 84 x_8_9 + 84 x_8_9
   + 84 x_8_9 + 84 x_8_9 + 84 x_8_9 + 84 x_8_9 + 84 x_8_9 + 84 x_8_9
   + 84 x_8_9 + 84 x_8_9 + 84 x_8_9 + 84 x_8_9 + 84 x_8_9 + 84 x_8_9
   + 84 x_8_9 + 84 x_8_9 + 84 x_8_9 + 84 x_8_9 + 84 x_8_9 + 84 x_8_9
   + 84 x_8_9 + 84 x_8_9 + 84 x_8_9 + 84 x_8_9 + 84 x_8_9 + 84 x_8_9
   + 84 x_8_9 + 84 x_8_9 + 84 x_8_9 + 84 x_8_9 + 84 x_8_9 + 84 x_8_9
   + 84 x_8_9 + 84 x_8_9 + 84 x_8_9 + 84 x_8_9 + 84 x_8_9 + 84 x_8_9
   + 84 x_8_9 + 84 x_8_9 + 84 x_8_9 + 84 x_8_9 + 84 x_8_9 + 84 x_8_9
   + 84 x_8_9 + 84 x_8_9 + 84 x_8_9 + 84 x_8_9 + 84 x_8_9 + 84 x_8_9
   + 84 x_8_9 + 84 x_8_9 + 84 x_8_9 + 84 x_8_9 + 84 x_8_9 + 84 x_8_9
   + 84 x_8_9 + 84 x_8_9 + 84 x_8_9 + 84 x_8_9 + 84 x_8_9 + 84 x_8_9
   + 84 x_8_9 + 84 x_8_9 + 84 x_8_9 + 84 x_8_9 + 84 x_8_9 + 84 x_8_9
   + 84 x_8_9 + 84 x_8_9 + 84 x_8_9 + 84 x_8_9 + 84 x_8_9 + 84 x_8_9
   + 84 x_8_9 + 84 x_8_9 + 84 x_8_9 + 84 x_8_9 + 84 x_8_9 + 84 x_8_9
   + 84 x_8_9 + 84 x_8_9 + 84 x_8_9 + 84 x_8_9 + 84 x_8_9 + 84 x_8_9
   + 84 x_8_9 + 84 x_8_9 + 84 x_8_9 + 84 x_8_9 + 84 x_8_9 + 84 x_8_9
   + 84 x_8_9 + 84 x_8_9 + 84 x_8_9 + 84 x_8_9 + 84 x_8_9 + 84 x_8_9
   + 84 x_8_9 + 84 x_8_9 + 84 x_8_9 + 84 x_8_9 + 84 x_8_9 + 84 x_8_9
   + 84 x_8_9 + 84 x_8_9 + 84 x_8_9 + 84 x_8_9 + 84 x_8_9 + 84 x_8_9
   + 84 x_8_9 + 84 x_8_9 + 84 x_8_9 + 84 x_8_9 + 84 x_8_9 + 84 x_8_9
   + 84 x_8_9 + 84 x_8_9 + 84 x_8_9 + 84 x_8_9 + 84 x_8_9 + 84 x_8_9
   + 84 x_8_9 + 84 x_8_9 + 84 x_8_9 + 84 x_8_9 + 84 x_8_9 + 84 x_8_9
   + 84 x_8_9 + 84 x_8_9 + 84 x_8_9 + 84 x_8_9 + 84 x_8_9 + 84 x_8_9
   + 84 x_8_9 + 84 x_8_9 + 84 x_8_9 + 84 x_8_9 + 84 x_8_9 + 84 x_8_9
   + 84 x_8_9 + 84 x_8_9 + 84 x_8_9 + 84 x_8_9 + 84 x_8_9 + 84 x_8_9
   + 84 x_8_9 + 84 x_8_9 + 84 x_8_9 + 84 x_8_9 + 84 x_8_9 + 84 x_8_9
   + 84 x_8_9 + 84 x_8_9 + 84 x_8_9 + 84 x_8_9 + 84 x_8_9 + 84 x_8_9
   + 84 x_8_9 + 84 x_8_9 + 84 x_8_9 + 84 x_8_9 + 84 x_8_9 + 84 x_8_9
   + 84 x_8_9 + 84 x_8_9 + 84 x_8_9 + 84 x_8_9 + 84 x_8_9 + 84 x_8_9
   + 84 x_8_9 + 84 x_8_9 + 84 x_8_9 + 84 x_8_9 + 84 x_8_9 + 84 x_8_9
   + 84 x_8_9 + 84 x_8_9 + 84 x_8_9 + 84 x_8_9 + 84 x_8_9 + 84 x_8_9
   + 84 x_8_9 + 84 x_8_9 + 84 x_8_9 + 84 x_8_9 + 84 x_8_9 + 84 x_8_9
   + 84 x_8_9 + 84 x_8_9 + 84 x_8_9 + 84 x_8_9 + 84 x_8_9 + 84 x_8_9
   + 84 x_8_9 + 84 x_8_9 + 84 x_8_9 + 84 x_8_9 + 84 x_8_9 + 84 x_8_9
   + 84 x_8_9 + 84 x_8_9 + 84 x_8_9 + 84 x_8_9 + 84 x_8_9 + 84 x_8_9
   + 84 x_8_9 + 84 x_8_9 + 84 x_8_9 + 84 x_8_9 + 84 x_8_9 + 84 x_8_9
   + 84 x_8_9 + 84 x_8_9 + 84 x_8_9 + 84 x_8_9 + 84 x_8_9 + 84 x_8_9
   + 84 x_8_9 + 84 x_8_9 + 84 x_8_9 + 84 x_8_9 + 84 x_8_9 + 84 x_8_9
   + 84 x_8_9 + 84 x_8_9 + 84 x_8_9 + 84 x_8_9 + 84 x_8_9 + 84 x_8_9
   + 157 Constant
Subject To
 c_0: y_2 = 1
 c_1_0: y_0 >= 1
 c_1_1: y_1 >= 1
 c_1_2: y_2 >= 1
 c_1_3: y_3 >= 1
 c_1_4: y_4 >= 1
 c_1_5: y_5 >= 1
 c_1_6: y_6 >= 1
 c_1_7: y_7 >= 1
 c_1_8: y_8 >= 1
 c_1_9: y_9 >= 1
 c_2_0: - 2 y_0 + x_0_1 + x_0_2 + x_0_3 + x_0_4 + x_0_5 + x_0_6 + x_0_9
   = 0
 c_2_1: - 2 y_1 + x_0_1 + x_1_2 + x_1_3 + x_1_4 + x_1_6 + x_1_8 = 0
 c_2_2: - 2 y_2 + x_0_2 + x_1_2 + x_2_3 + x_2_5 + x_2_8 + x_2_9 + 2 x_4_2
   = 0
 c_2_3: - 2 y_3 + x_0_3 + x_1_3 + x_2_3 + x_3_4 + x_3_5 + x_3_6 + x_3_8
   + x_3_9 = 0
 c_2_4: - 2 y_4 + x_0_4 + x_1_4 + x_3_4 + 2 x_4_2 + x_4_5 + x_4_7 + x_4_8
   = 0
 c_2_5: - 2 y_5 + x_0_5 + x_2_5 + x_3_5 + x_4_5 + x_5_6 = 0
 c_2_6: - 2 y_6 + x_0_6 + x_1_6 + x_3_6 + x_5_6 + x_6_7 = 0
 c_2_7: - 2 y_7 + x_4_7 + x_6_7 + x_7_8 + x_7_9 = 0
 c_2_8: - 2 y_8 + x_1_8 + x_2_8 + x_3_8 + x_4_8 + x_7_8 + 287 x_8_9 = 0
 c_2_9: - 2 y_9 + x_0_9 + x_2_9 + x_3_9 + x_7_9 + 287 x_8_9 = 0
Bounds
 Constant = 1
Binaries
 y_0 y_1 y_2 y_3 y_4 y_5 y_6 y_7 y_8 y_9 x_0_1 x_0_2 x_0_3 x_0_4 x_0_5
 x_0_6 x_0_9 x_1_2 x_1_3 x_1_4 x_1_6 x_1_8 x_2_3 x_2_4 x_2_5 x_2_8 x_2_9
 x_3_4 x_3_5 x_3_6 x_3_8 x_3_9 x_4_2 x_4_5 x_4_7 x_4_8 x_5_6 x_6_7 x_7_8
 x_7_9 x_8_9 x_8_9 x_8_9 x_8_9 x_8_9 x_8_9 x_8_9 x_8_9 x_8_9 x_8_9 x_8_9
 x_8_9 x_8_9 x_8_9 x_8_9 x_8_9 x_8_9 x_8_9 x_8_9 x_8_9 x_8_9 x_8_9 x_8_9
 x_8_9 x_8_9 x_8_9 x_8_9 x_8_9 x_8_9 x_8_9 x_8_9 x_8_9 x_8_9 x_8_9 x_8_9
 x_8_9 x_8_9 x_8_9 x_8_9 x_8_9 x_8_9 x_8_9 x_8_9 x_8_9 x_8_9 x_8_9 x_8_9
 x_8_9 x_8_9 x_8_9 x_8_9 x_8_9 x_8_9 x_8_9 x_8_9 x_8_9 x_8_9 x_8_9 x_8_9
 x_8_9 x_8_9 x_8_9 x_8_9 x_8_9 x_8_9 x_8_9 x_8_9 x_8_9 x_8_9 x_8_9 x_8_9
 x_8_9 x_8_9 x_8_9 x_8_9 x_8_9 x_8_9 x_8_9 x_8_9 x_8_9 x_8_9 x_8_9 x_8_9
 x_8_9 x_8_9 x_8_9 x_8_9 x_8_9 x_8_9 x_8_9 x_8_9 x_8_9 x_8_9 x_8_9 x_8_9
 x_8_9 x_8_9 x_8_9 x_8_9 x_8_9 x_8_9 x_8_9 x_8_9 x_8_9 x_8_9 x_8_9 x_8_9
 x_8_9 x_8_9 x_8_9 x_8_9 x_8_9 x_8_9 x_8_9 x_8_9 x_8_9 x_8_9 x_8_9 x_8_9
 x_8_9 x_8_9 x_8_9 x_8_9 x_8_9 x_8_9 x_8_9 x_8_9 x_8_9 x_8_9 x_8_9 x_8_9
 x_8_9 x_8_9 x_8_9 x_8_9 x_8_9 x_8_9 x_8_9 x_8_9 x_8_9 x_8_9 x_8_9 x_8_9
 x_8_9 x_8_9 x_8_9 x_8_9 x_8_9 x_8_9 x_8_9 x_8_9 x_8_9 x_8_9 x_8_9 x_8_9
 x_8_9 x_8_9 x_8_9 x_8_9 x_8_9 x_8_9 x_8_9 x_8_9 x_8_9 x_8_9 x_8_9 x_8_9
 x_8_9 x_8_9 x_8_9 x_8_9 x_8_9 x_8_9 x_8_9 x_8_9 x_8_9 x_8_9 x_8_9 x_8_9
 x_8_9 x_8_9 x_8_9 x_8_9 x_8_9 x_8_9 x_8_9 x_8_9 x_8_9 x_8_9 x_8_9 x_8_9
 x_8_9 x_8_9 x_8_9 x_8_9 x_8_9 x_8_9 x_8_9 x_8_9 x_8_9 x_8_9 x_8_9 x_8_9
 x_8_9 x_8_9 x_8_9 x_8_9 x_8_9 x_8_9 x_8_9 x_8_9 x_8_9 x_8_9 x_8_9 x_8_9
 x_8_9 x_8_9 x_8_9 x_8_9 x_8_9 x_8_9 x_8_9 x_8_9 x_8_9 x_8_9 x_8_9 x_8_9
 x_8_9 x_8_9 x_8_9 x_8_9 x_8_9 x_8_9 x_8_9 x_8_9 x_8_9 x_8_9 x_8_9 x_8_9
 x_8_9 x_8_9 x_8_9 x_8_9 x_8_9 x_8_9 x_8_9 x_8_9 x_8_9 x_8_9 x_8_9 x_8_9
 x_8_9 x_8_9 x_8_9 x_8_9 x_8_9 x_8_9 x_8_9 x_8_9 x_8_9 x_8_9 x_8_9 x_8_9
 x_8_9 x_8_9 x_8_9 x_8_9 x_8_9 x_8_9 x_8_9 x_8_9 x_8_9 x_8_9 x_8_9 x_8_9
 x_8_9 x_8_9 x_8_9 x_8_9 x_8_9 x_8_9 x_8_9 x_8_9 x_8_9 x_8_9 x_8_9 x_8_9
End
